24
8
5 20 23 9 2 13 3 6 22 16
11 1 19 5 21 4 8 23
1 0 8 12 7 5 15 19 9 20 21 6 17 4 16 13 10 2 23 11 18
2 21 5 17 9 22 1 0 12 16 3 10 6 18
6 0 22 21 15 10 16 19 17 7 20 11
9 13 23 18 16 4 11 5 12 20
14 21 8 5 13 9 15
14 16 5 7 2 8 10 21 11 13 6 1 9 23 22 17 4 15 3
